RAW/CMTX/fspd/CMT8X.vrp_seed-6.out
865.5016884	0.264	41.247
