RAW/CMTX/fspd/CMT8X.vrp_seed-6.sol
Route #1: 12 80 68 24 29 34 78 79 3 77 76 28
Route #2: 27 69 70 30 32 90 63 10 31
Route #3: 52 7 48 47 36 49 64 11 19 62 88
Route #4: 50 33 81 9 35 71 65 66 20 51 1
Route #5: 89 60 83 84 17 45 46 8 82 18
Route #6: 94 95 97 92 37 98 100 91 85 93 59 99 96 6
Route #7: 5 61 16 86 38 44 14 43 42 87 13
Route #8: 26 4 56 23 67 39 25 55 54
Route #9: 58 2 57 15 41 22 75 74 72 73 21 40 53
Cost 865.501688